
Gurobi 11.0.0 (win64) logging started Sat Jun 15 09:41:48 2024


Gurobi 11.0.0 (win64) logging started Sat Jun 15 10:40:08 2024


Gurobi 11.0.0 (win64) logging started Sat Jun 15 10:58:59 2024


Gurobi 11.0.0 (win64) logging started Sat Jun 15 13:13:54 2024


Gurobi 11.0.0 (win64) logging started Sat Jun 15 13:16:50 2024


Gurobi 11.0.0 (win64) logging started Sat Jun 15 13:49:39 2024


Gurobi 11.0.0 (win64) logging started Tue Jul  2 10:29:04 2024

